293,124
744,343
533,383
596,379
168,572
649,613
681,346
626,235
597,322
575,300
858,378
596,379
597,322
721,486
786,551
1137,258
629,334
841,325
975,257
858,378
888,374
1184,485
1066,467
875,547
786,551
649,613
570,748
871,780
